p cnf 50 850
1 2 3 4 5 0
6 7 8 9 10 0
11 12 13 14 15 0
16 17 18 19 20 0
21 22 23 24 25 0
26 27 28 29 30 0
31 32 33 34 35 0
36 37 38 39 40 0
41 42 43 44 45 0
46 47 48 49 50 0
1 18446744073709551614 18446744073709551613 18446744073709551612 18446744073709551611 18446744073709551610 18446744073709551609 18446744073709551608 18446744073709551607 18446744073709551606 0
18446744073709551615 2 18446744073709551613 18446744073709551612 18446744073709551611 18446744073709551610 18446744073709551609 18446744073709551608 18446744073709551607 18446744073709551606 0
18446744073709551615 18446744073709551614 3 18446744073709551612 18446744073709551611 18446744073709551610 18446744073709551609 18446744073709551608 18446744073709551607 18446744073709551606 0
18446744073709551615 18446744073709551614 18446744073709551613 4 18446744073709551611 18446744073709551610 18446744073709551609 18446744073709551608 18446744073709551607 18446744073709551606 0
18446744073709551615 18446744073709551614 18446744073709551613 18446744073709551612 5 18446744073709551610 18446744073709551609 18446744073709551608 18446744073709551607 18446744073709551606 0
6 18446744073709551609 18446744073709551608 18446744073709551607 18446744073709551606 18446744073709551605 18446744073709551604 18446744073709551603 18446744073709551602 18446744073709551601 0
18446744073709551610 7 18446744073709551608 18446744073709551607 18446744073709551606 18446744073709551605 18446744073709551604 18446744073709551603 18446744073709551602 18446744073709551601 0
18446744073709551610 18446744073709551609 8 18446744073709551607 18446744073709551606 18446744073709551605 18446744073709551604 18446744073709551603 18446744073709551602 18446744073709551601 0
18446744073709551610 18446744073709551609 18446744073709551608 9 18446744073709551606 18446744073709551605 18446744073709551604 18446744073709551603 18446744073709551602 18446744073709551601 0
18446744073709551610 18446744073709551609 18446744073709551608 18446744073709551607 10 18446744073709551605 18446744073709551604 18446744073709551603 18446744073709551602 18446744073709551601 0
11 18446744073709551604 18446744073709551603 18446744073709551602 18446744073709551601 18446744073709551600 18446744073709551599 18446744073709551598 18446744073709551597 18446744073709551596 0
18446744073709551605 12 18446744073709551603 18446744073709551602 18446744073709551601 18446744073709551600 18446744073709551599 18446744073709551598 18446744073709551597 18446744073709551596 0
18446744073709551605 18446744073709551604 13 18446744073709551602 18446744073709551601 18446744073709551600 18446744073709551599 18446744073709551598 18446744073709551597 18446744073709551596 0
18446744073709551605 18446744073709551604 18446744073709551603 14 18446744073709551601 18446744073709551600 18446744073709551599 18446744073709551598 18446744073709551597 18446744073709551596 0
18446744073709551605 18446744073709551604 18446744073709551603 18446744073709551602 15 18446744073709551600 18446744073709551599 18446744073709551598 18446744073709551597 18446744073709551596 0
16 18446744073709551599 18446744073709551598 18446744073709551597 18446744073709551596 18446744073709551595 18446744073709551594 18446744073709551593 18446744073709551592 18446744073709551591 0
18446744073709551600 17 18446744073709551598 18446744073709551597 18446744073709551596 18446744073709551595 18446744073709551594 18446744073709551593 18446744073709551592 18446744073709551591 0
18446744073709551600 18446744073709551599 18 18446744073709551597 18446744073709551596 18446744073709551595 18446744073709551594 18446744073709551593 18446744073709551592 18446744073709551591 0
18446744073709551600 18446744073709551599 18446744073709551598 19 18446744073709551596 18446744073709551595 18446744073709551594 18446744073709551593 18446744073709551592 18446744073709551591 0
18446744073709551600 18446744073709551599 18446744073709551598 18446744073709551597 20 18446744073709551595 18446744073709551594 18446744073709551593 18446744073709551592 18446744073709551591 0
21 18446744073709551594 18446744073709551593 18446744073709551592 18446744073709551591 18446744073709551590 18446744073709551589 18446744073709551588 18446744073709551587 18446744073709551586 0
18446744073709551595 22 18446744073709551593 18446744073709551592 18446744073709551591 18446744073709551590 18446744073709551589 18446744073709551588 18446744073709551587 18446744073709551586 0
18446744073709551595 18446744073709551594 23 18446744073709551592 18446744073709551591 18446744073709551590 18446744073709551589 18446744073709551588 18446744073709551587 18446744073709551586 0
18446744073709551595 18446744073709551594 18446744073709551593 24 18446744073709551591 18446744073709551590 18446744073709551589 18446744073709551588 18446744073709551587 18446744073709551586 0
18446744073709551595 18446744073709551594 18446744073709551593 18446744073709551592 25 18446744073709551590 18446744073709551589 18446744073709551588 18446744073709551587 18446744073709551586 0
26 18446744073709551589 18446744073709551588 18446744073709551587 18446744073709551586 18446744073709551585 18446744073709551584 18446744073709551583 18446744073709551582 18446744073709551581 0
18446744073709551590 27 18446744073709551588 18446744073709551587 18446744073709551586 18446744073709551585 18446744073709551584 18446744073709551583 18446744073709551582 18446744073709551581 0
18446744073709551590 18446744073709551589 28 18446744073709551587 18446744073709551586 18446744073709551585 18446744073709551584 18446744073709551583 18446744073709551582 18446744073709551581 0
18446744073709551590 18446744073709551589 18446744073709551588 29 18446744073709551586 18446744073709551585 18446744073709551584 18446744073709551583 18446744073709551582 18446744073709551581 0
18446744073709551590 18446744073709551589 18446744073709551588 18446744073709551587 30 18446744073709551585 18446744073709551584 18446744073709551583 18446744073709551582 18446744073709551581 0
31 18446744073709551584 18446744073709551583 18446744073709551582 18446744073709551581 18446744073709551580 18446744073709551579 18446744073709551578 18446744073709551577 18446744073709551576 0
18446744073709551585 32 18446744073709551583 18446744073709551582 18446744073709551581 18446744073709551580 18446744073709551579 18446744073709551578 18446744073709551577 18446744073709551576 0
18446744073709551585 18446744073709551584 33 18446744073709551582 18446744073709551581 18446744073709551580 18446744073709551579 18446744073709551578 18446744073709551577 18446744073709551576 0
18446744073709551585 18446744073709551584 18446744073709551583 34 18446744073709551581 18446744073709551580 18446744073709551579 18446744073709551578 18446744073709551577 18446744073709551576 0
18446744073709551585 18446744073709551584 18446744073709551583 18446744073709551582 35 18446744073709551580 18446744073709551579 18446744073709551578 18446744073709551577 18446744073709551576 0
36 18446744073709551579 18446744073709551578 18446744073709551577 18446744073709551576 18446744073709551575 18446744073709551574 18446744073709551573 18446744073709551572 18446744073709551571 0
18446744073709551580 37 18446744073709551578 18446744073709551577 18446744073709551576 18446744073709551575 18446744073709551574 18446744073709551573 18446744073709551572 18446744073709551571 0
18446744073709551580 18446744073709551579 38 18446744073709551577 18446744073709551576 18446744073709551575 18446744073709551574 18446744073709551573 18446744073709551572 18446744073709551571 0
18446744073709551580 18446744073709551579 18446744073709551578 39 18446744073709551576 18446744073709551575 18446744073709551574 18446744073709551573 18446744073709551572 18446744073709551571 0
18446744073709551580 18446744073709551579 18446744073709551578 18446744073709551577 40 18446744073709551575 18446744073709551574 18446744073709551573 18446744073709551572 18446744073709551571 0
41 18446744073709551574 18446744073709551573 18446744073709551572 18446744073709551571 18446744073709551570 18446744073709551569 18446744073709551568 18446744073709551567 18446744073709551566 0
18446744073709551575 42 18446744073709551573 18446744073709551572 18446744073709551571 18446744073709551570 18446744073709551569 18446744073709551568 18446744073709551567 18446744073709551566 0
18446744073709551575 18446744073709551574 43 18446744073709551572 18446744073709551571 18446744073709551570 18446744073709551569 18446744073709551568 18446744073709551567 18446744073709551566 0
18446744073709551575 18446744073709551574 18446744073709551573 44 18446744073709551571 18446744073709551570 18446744073709551569 18446744073709551568 18446744073709551567 18446744073709551566 0
18446744073709551575 18446744073709551574 18446744073709551573 18446744073709551572 45 18446744073709551570 18446744073709551569 18446744073709551568 18446744073709551567 18446744073709551566 0
46 18446744073709551569 18446744073709551568 18446744073709551567 18446744073709551566 18446744073709551565 18446744073709551564 18446744073709551563 18446744073709551562 18446744073709551561 0
18446744073709551570 47 18446744073709551568 18446744073709551567 18446744073709551566 18446744073709551565 18446744073709551564 18446744073709551563 18446744073709551562 18446744073709551561 0
18446744073709551570 18446744073709551569 48 18446744073709551567 18446744073709551566 18446744073709551565 18446744073709551564 18446744073709551563 18446744073709551562 18446744073709551561 0
18446744073709551570 18446744073709551569 18446744073709551568 49 18446744073709551566 18446744073709551565 18446744073709551564 18446744073709551563 18446744073709551562 18446744073709551561 0
18446744073709551570 18446744073709551569 18446744073709551568 18446744073709551567 50 18446744073709551565 18446744073709551564 18446744073709551563 18446744073709551562 18446744073709551561 0
18446744073709551615 18446744073709551614 18446744073709551613 18446744073709551612 0
18446744073709551610 18446744073709551609 18446744073709551608 18446744073709551607 18446744073709551606 0
18446744073709551605 18446744073709551604 18446744073709551603 18446744073709551602 18446744073709551601 0
18446744073709551600 18446744073709551599 18446744073709551598 18446744073709551597 18446744073709551596 0
18446744073709551595 18446744073709551594 18446744073709551593 18446744073709551592 18446744073709551591 0
18446744073709551590 18446744073709551589 18446744073709551588 18446744073709551587 18446744073709551586 0
18446744073709551585 18446744073709551584 18446744073709551583 18446744073709551582 18446744073709551581 0
18446744073709551580 18446744073709551579 18446744073709551578 18446744073709551577 18446744073709551576 0
18446744073709551573 18446744073709551572 0
18446744073709551568 18446744073709551567 0
-1 -100
-1 -150
-1 -200
-1 -220
-1 -230
-1 -240
-1 -300
-1 -350
-1 -400
-1 -450
-1 -500
-2 -60
-2 -110
-2 -160
-2 -230
-2 -240
-2 -250
-2 -260
-2 -310
-2 -360
-2 -410
-2 -460
-3 -60
-3 -70
-3 -100
-3 -110
-3 -120
-3 -150
-3 -160
-3 -170
-3 -200
-3 -240
-3 -260
-3 -270
-3 -300
-3 -310
-3 -320
-3 -350
-3 -360
-3 -370
-3 -400
-3 -410
-3 -420
-3 -450
-3 -460
-3 -470
-3 -500
-4 -100
-4 -150
-4 -200
-4 -210
-4 -220
-4 -230
-4 -300
-4 -350
-4 -400
-4 -450
-4 -500
-5 -70
-5 -120
-5 -170
-5 -210
-5 -230
-5 -240
-5 -270
-5 -320
-5 -370
-5 -420
-5 -470
-6 -50
-6 -150
-6 -200
-6 -220
-6 -230
-6 -240
-6 -270
-6 -280
-6 -290
-6 -350
-6 -400
-6 -450
-6 -500
-7 -10
-7 -110
-7 -160
-7 -230
-7 -240
-7 -250
-7 -280
-7 -290
-7 -300
-7 -310
-7 -360
-7 -410
-7 -460
-8 -10
-8 -20
-8 -50
-8 -110
-8 -120
-8 -150
-8 -160
-8 -170
-8 -200
-8 -240
-8 -290
-8 -310
-8 -320
-8 -350
-8 -360
-8 -370
-8 -400
-8 -410
-8 -420
-8 -450
-8 -460
-8 -470
-8 -500
-9 -50
-9 -150
-9 -200
-9 -210
-9 -220
-9 -230
-9 -260
-9 -270
-9 -280
-9 -350
-9 -400
-9 -450
-9 -500
-10 -20
-10 -120
-10 -170
-10 -210
-10 -230
-10 -240
-10 -260
-10 -280
-10 -290
-10 -320
-10 -370
-10 -420
-10 -470
-11 -20
-11 -30
-11 -40
-11 -100
-11 -200
-11 -250
-11 -300
-11 -350
-11 -400
-11 -450
-11 -500
-12 -30
-12 -40
-12 -50
-12 -60
-12 -160
-12 -210
-12 -260
-12 -310
-12 -360
-12 -410
-12 -460
-13 -40
-13 -60
-13 -70
-13 -100
-13 -160
-13 -170
-13 -200
-13 -210
-13 -220
-13 -250
-13 -260
-13 -270
-13 -300
-13 -310
-13 -320
-13 -350
-13 -360
-13 -370
-13 -400
-13 -410
-13 -420
-13 -450
-13 -460
-13 -470
-13 -500
-14 -10
-14 -20
-14 -30
-14 -100
-14 -200
-14 -250
-14 -300
-14 -350
-14 -400
-14 -450
-14 -500
-15 -10
-15 -30
-15 -40
-15 -70
-15 -170
-15 -220
-15 -270
-15 -320
-15 -370
-15 -420
-15 -470
-16 -20
-16 -30
-16 -40
-16 -100
-16 -120
-16 -130
-16 -140
-16 -220
-16 -230
-16 -240
-16 -300
-16 -350
-16 -370
-16 -380
-16 -390
-16 -450
-16 -500
-17 -30
-17 -40
-17 -50
-17 -60
-17 -130
-17 -140
-17 -150
-17 -230
-17 -240
-17 -250
-17 -260
-17 -310
-17 -380
-17 -390
-17 -400
-17 -410
-17 -460
-18 -40
-18 -60
-18 -70
-18 -100
-18 -140
-18 -240
-18 -260
-18 -270
-18 -300
-18 -310
-18 -320
-18 -350
-18 -390
-18 -410
-18 -420
-18 -450
-18 -460
-18 -470
-18 -500
-19 -10
-19 -20
-19 -30
-19 -100
-19 -110
-19 -120
-19 -130
-19 -210
-19 -220
-19 -230
-19 -300
-19 -350
-19 -360
-19 -370
-19 -380
-19 -450
-19 -500
-20 -10
-20 -30
-20 -40
-20 -70
-20 -110
-20 -130
-20 -140
-20 -210
-20 -230
-20 -240
-20 -270
-20 -320
-20 -360
-20 -380
-20 -390
-20 -420
-20 -470
-21 -50
-21 -100
-21 -120
-21 -130
-21 -140
-21 -200
-21 -300
-21 -320
-21 -330
-21 -340
-21 -400
-21 -450
-21 -500
-22 -10
-22 -60
-22 -130
-22 -140
-22 -150
-22 -160
-22 -260
-22 -330
-22 -340
-22 -350
-22 -360
-22 -410
-22 -460
-23 -10
-23 -20
-23 -50
-23 -60
-23 -70
-23 -100
-23 -140
-23 -160
-23 -170
-23 -200
-23 -260
-23 -270
-23 -300
-23 -340
-23 -360
-23 -370
-23 -400
-23 -410
-23 -420
-23 -450
-23 -460
-23 -470
-23 -500
-24 -50
-24 -100
-24 -110
-24 -120
-24 -130
-24 -200
-24 -300
-24 -310
-24 -320
-24 -330
-24 -400
-24 -450
-24 -500
-25 -20
-25 -70
-25 -110
-25 -130
-25 -140
-25 -170
-25 -270
-25 -310
-25 -330
-25 -340
-25 -370
-25 -420
-25 -470
-26 -50
-26 -70
-26 -80
-26 -90
-26 -120
-26 -130
-26 -140
-26 -200
-26 -250
-26 -320
-26 -330
-26 -340
-26 -370
-26 -380
-26 -390
-26 -450
-26 -500
-27 -10
-27 -80
-27 -90
-27 -100
-27 -130
-27 -140
-27 -150
-27 -160
-27 -210
-27 -330
-27 -340
-27 -350
-27 -380
-27 -390
-27 -400
-27 -410
-27 -460
-28 -10
-28 -20
-28 -50
-28 -90
-28 -140
-28 -160
-28 -170
-28 -200
-28 -210
-28 -220
-28 -250
-28 -340
-28 -390
-28 -410
-28 -420
-28 -450
-28 -460
-28 -470
-28 -500
-29 -50
-29 -60
-29 -70
-29 -80
-29 -110
-29 -120
-29 -130
-29 -200
-29 -250
-29 -310
-29 -320
-29 -330
-29 -360
-29 -370
-29 -380
-29 -450
-29 -500
-30 -20
-30 -60
-30 -80
-30 -90
-30 -110
-30 -130
-30 -140
-30 -170
-30 -220
-30 -310
-30 -330
-30 -340
-30 -360
-30 -380
-30 -390
-30 -420
-30 -470
-31 -50
-31 -100
-31 -150
-31 -200
-31 -250
-31 -270
-31 -280
-31 -290
-31 -370
-31 -380
-31 -390
-31 -420
-31 -430
-31 -440
-31 -470
-31 -480
-31 -490
-32 -10
-32 -60
-32 -110
-32 -160
-32 -210
-32 -280
-32 -290
-32 -300
-32 -380
-32 -390
-32 -400
-32 -430
-32 -440
-32 -450
-32 -480
-32 -490
-32 -500
-33 -10
-33 -20
-33 -50
-33 -60
-33 -70
-33 -100
-33 -110
-33 -120
-33 -150
-33 -160
-33 -170
-33 -200
-33 -210
-33 -220
-33 -250
-33 -290
-33 -390
-33 -440
-33 -490
-34 -50
-34 -100
-34 -150
-34 -200
-34 -250
-34 -260
-34 -270
-34 -280
-34 -360
-34 -370
-34 -380
-34 -410
-34 -420
-34 -430
-34 -460
-34 -470
-34 -480
-35 -20
-35 -70
-35 -120
-35 -170
-35 -220
-35 -260
-35 -280
-35 -290
-35 -360
-35 -380
-35 -390
-35 -410
-35 -430
-35 -440
-35 -460
-35 -480
-35 -490
-36 -20
-36 -30
-36 -40
-36 -100
-36 -120
-36 -130
-36 -140
-36 -170
-36 -180
-36 -190
-36 -250
-36 -270
-36 -280
-36 -290
-36 -320
-36 -330
-36 -340
-36 -450
-36 -470
-36 -480
-36 -490
-37 -30
-37 -40
-37 -50
-37 -60
-37 -130
-37 -140
-37 -150
-37 -180
-37 -190
-37 -200
-37 -210
-37 -280
-37 -290
-37 -300
-37 -330
-37 -340
-37 -350
-37 -410
-37 -480
-37 -490
-37 -500
-38 -40
-38 -60
-38 -70
-38 -100
-38 -140
-38 -190
-38 -210
-38 -220
-38 -250
-38 -290
-38 -340
-38 -410
-38 -420
-38 -450
-38 -490
-39 -10
-39 -20
-39 -30
-39 -100
-39 -110
-39 -120
-39 -130
-39 -160
-39 -170
-39 -180
-39 -250
-39 -260
-39 -270
-39 -280
-39 -310
-39 -320
-39 -330
-39 -450
-39 -460
-39 -470
-39 -480
-40 -10
-40 -30
-40 -40
-40 -70
-40 -110
-40 -130
-40 -140
-40 -160
-40 -180
-40 -190
-40 -220
-40 -260
-40 -280
-40 -290
-40 -310
-40 -330
-40 -340
-40 -420
-40 -460
-40 -480
-40 -490
-41 -50
-41 -100
-41 -120
-41 -130
-41 -140
-41 -200
-41 -250
-41 -300
-41 -350
-41 -400
-41 -500
-42 -10
-42 -60
-42 -130
-42 -140
-42 -150
-42 -160
-42 -210
-42 -260
-42 -310
-42 -360
-42 -460
-43 -10
-43 -20
-43 -50
-43 -60
-43 -70
-43 -100
-43 -140
-43 -160
-43 -170
-43 -200
-43 -210
-43 -220
-43 -250
-43 -260
-43 -270
-43 -300
-43 -310
-43 -320
-43 -350
-43 -360
-43 -370
-43 -400
-43 -460
-43 -470
-43 -500
-44 -50
-44 -100
-44 -110
-44 -120
-44 -130
-44 -200
-44 -250
-44 -300
-44 -350
-44 -400
-44 -500
-45 -20
-45 -70
-45 -110
-45 -130
-45 -140
-45 -170
-45 -220
-45 -270
-45 -320
-45 -370
-45 -470
-46 -50
-46 -100
-46 -150
-46 -200
-46 -250
-46 -300
-46 -350
-46 -400
-46 -450
-47 -10
-47 -60
-47 -110
-47 -160
-47 -210
-47 -260
-47 -310
-47 -360
-47 -410
-48 -10
-48 -20
-48 -50
-48 -60
-48 -70
-48 -100
-48 -110
-48 -120
-48 -150
-48 -160
-48 -170
-48 -200
-48 -210
-48 -220
-48 -250
-48 -260
-48 -270
-48 -300
-48 -310
-48 -320
-48 -350
-48 -360
-48 -370
-48 -400
-48 -410
-48 -420
-48 -450
-49 -50
-49 -100
-49 -150
-49 -200
-49 -250
-49 -300
-49 -350
-49 -400
-49 -450
-50 -20
-50 -70
-50 -120
-50 -170
-50 -220
-50 -270
-50 -320
-50 -370
-50 -420
